%chk=J:\che513\mediumProject\COopt_freq.chk
# opt freq hf/6-31g(d) geom=connectivity

Title Card Required

0 1
 C                  0.00000000    0.00000000   -0.63644300
 O                  0.00000000    0.00000000    0.47733200

 1 2 3.0
 2

