%chk=J:\che513\mediumProject\formaldehydeFormationNoBonds.chk
# opt hf/3-21g geom=connectivity

Title Card Required

0 1 0 1 0 1
 C(Fragment=1)    0   -1.85246558    0.09672598    0.00000000
 O(Fragment=1)    0   -2.77571715   -0.75836296    0.00000000
 O(Fragment=1)    0   -0.92921657    0.95181768    0.00000000
 C(Fragment=2)   -1    4.11517563   -0.44062134    0.07021202
 H(Fragment=2)   -1    4.68087209    0.35632258   -0.36541156
 H(Fragment=2)   -1    4.50179710   -0.66218035    1.04300976
 H(Fragment=2)   -1    4.18837535   -1.31003170   -0.54919692
 H(Fragment=2)   -1    3.08965796   -0.14659589    0.15244679

 1 2 2.0 3 2.0
 2
 3
 4 5 1.0 6 1.0 7 1.0 8 1.0
 5
 6
 7
 8

