%chk=J:\che513\mediumProject\H2opt_freq.chk
# opt freq hf/6-31g(d) geom=connectivity

Title Card Required

0 1
 H                 -0.59834706    1.44628097    0.00000000
 H                 -1.19834706    1.44628097    0.00000000

 1 2 1.0
 2

