%chk=J:\che513\mediumProject\trans_opt_freq.chk
# opt=(calcfc,ts) freq hf/6-31g(d) geom=connectivity

Get ZPE

0 1
 C                 -1.99724510    0.67493112    0.00000000
 H                 -0.90431810    0.62161612    0.00029600
 H                 -0.81004210    1.94629912    0.00002000
 O                 -3.07434510    1.02980212    0.00008700

 1 2 1.0 4 3.0
 2
 3
 4

